mixintcount/benchmarks/random_v2l/5_5_125.in
20 7
#	x1	x2	x3	x4	x5;		0 = Real; 1 = Integer
	1	1	1	1	1
1	6	1	-1	-10	3	20
1	6	-7	4	2	9	111
1	2	-5	1	5	-9	91
1	-10	-4	7	-10	10	41
1	6	4	7	-10	-8	-7
1	8	8	10	-6	6	82
1	-6	1	6	9	-9	-32
1	6	1	7	-4	-5	14
1	6	-6	-9	1	-6	109
1	3	9	2	-1	7	10
1	1	0	0	0	0	125
1	-1	0	0	0	0	125
1	0	1	0	0	0	125
1	0	-1	0	0	0	125
1	0	0	1	0	0	125
1	0	0	-1	0	0	125
1	0	0	0	1	0	125
1	0	0	0	-1	0	125
1	0	0	0	0	1	125
1	0	0	0	0	-1	125
